letting n =  10
letting blocks =  [[1, 5], [1, 7], [1, 8], [1, 9], [1, 10], [2, 1], [2, 3], [2, 4], [2, 5], [2, 7], [2, 8], [3, 1], [3, 2], [3, 3], [3, 5], [3, 6], [3, 7], [4, 5], [4, 6], [5, 1], [5, 4], [5, 6], [5, 8], [5, 9], [5, 10], [6, 1], [6, 2], [6, 5], [6, 6], [6, 7], [7, 3], [7, 4], [7, 6], [7, 8], [7, 9], [7, 10], [8, 2], [8, 3], [8, 4], [8, 7], [9, 3], [9, 4], [9, 6], [9, 9], [10, 2], [10, 3], [10, 4], [10, 5], [10, 8], [10, 9]]
